# 49545
param n := 30;
param s := 1;
set E :=  (0,3) (1,18) (1,27) (2,15) (3,15) (3,16) (3,20) (3,23) (3,28) (4,9) (4,19) (5,13) (5,17) (6,9) (6,24) (7,24) (8,15) (8,26) (9,26) (9,28) (10,14) (11,13) (11,29) (12,14) (12,22) (13,21) (16,22) (17,20) (17,29) (18,23) (20,22) (21,29) (25,27);
